(set-logic NRA)
(declare-fun a () Real)
(assert (exists ((t Real)) (exists ((x Real)) (exists ((y Real)) (and (=  (+ (+ 153600 (* t (+ (* a (- 62720)) (* t (+ (+ 800 (* a (* a 10336))) (* t (+ (* a (+ (- 160) (* a (* a (- 800))))) (* t (+ 1 (* a (* a (+ 6 (* a (* a 25)))))))))))))) (* x (+ (* t (+ (+ (- 1600) (* a (- 1600))) (* t (+ (* a (+ 320 (* a 320))) (* t (+ (- 4) (* a (+ 4 (* a (+ (- 12) (* a (- 20)))))))))))) (* x (+ 1600 (* t (+ (* a (- 320)) (* t (+ 4 (* a (+ (- 8) (* a 20)))))))))))) 0) (=  (+ (+ (+ (* a 19360) (* t (+ (+ (- 400) (* a (* a (- 4336)))) (* t (+ (* a (+ 50 (* a (* a 550)))) (* t (+ (- 1) (* a (* a (+ (- 6) (* a (* a (- 25))))))))))))) (* x (+ (+ (+ 800 (* a (- 800))) (* t (+ (* a (+ (- 100) (* a (- 220)))) (* t (+ 4 (* a (+ (- 4) (* a (+ 12 (* a 20)))))))))) (* x (+ (* a 160) (* t (+ (- 4) (* a (+ 8 (* a (- 20))))))))))) (* y (+ (+ (* a (- 800)) (* t 80)) (* x (+ (- 160) (* a 160)))))) 0) (=  (+ (+ (+ (- 19360) (* t (+ (* a 4336) (* t (+ (+ (- 50) (* a (* a (- 550)))) (* t (* a (+ 11 (* a (* a 25)))))))))) (* x (+ (+ 800 (* t (+ (+ 100 (* a 220)) (* t (+ 2 (* a (+ (- 22) (* a (- 20))))))))) (* x (+ (- 160) (* t (+ (- 4) (* a 20)))))))) (* y (+ (+ 800 (* t (* t (- 8)))) (* x (+ (- 160) (* t 16)))))) 0) (=  (+ (+ (+ 400 (* t (* t (+ 1 (* a (* a (- 5))))))) (* x (* t (+ (- 2) (* a 2))))) (* y (+ (- 80) (* t (* a 8))))) 0) (=  (+ (+ (+ 396 (* t t)) (* x (+ (* t (- 2)) x))) (* y (+ (- 80) (* y 4)))) 0) (>  t 0) (>  a 0))))))
(apply qe)
